32	0

0	1	2
5	2	3	4
5	1	5
5	1	5
9	1	6
8	1	7
10	2	8	9
9	1	10
8	1	10
8	1	11
1	1	12
8	2	13	14
1	1	15
1	1	15
4	1	16
3	1	17
3	2	18	20
3	1	19
8	1	21
5	1	21
1	1	22
7	1	23
9	1	24
10	1	25
5	2	26	27
10	1	28
5	1	28
6	1	29
10	2	30	31
9	1	32
9	1	32
0	0
